c ---- [ banner ] ------------------------------------------------------------
c
c KISSAT SAT Solver
c Copyright (c) 2019-2021 Armin Biere JKU Linz
c 
c Version 2.0.1 02cd69626a53e93e09286b1978ccb5d6bec58b8e
c Apple clang version 13.1.6 (clang-1316.0.21.2) -W -Wall -O3 -DNDEBUG
c Thu Mar 31 15:34:51 EDT 2022 Darwin Randals-Macbook-Pro.local 21.2.0 arm64
c
c ---- [ proving ] -----------------------------------------------------------
c
c opened and writing proof to DRAT file:
c
c   chess-012.drat
c
c ---- [ parsing ] -----------------------------------------------------------
c
c opened and reading DIMACS file:
c
c   chess-012.cnf
c
c parsed 'p cnf 260 856' header
c closing input after reading 18014 bytes (18 KB)
c finished parsing after 0.00 seconds
c
c ---- [ solving ] -----------------------------------------------------------
c
c  seconds switched rate      trail   variables
c         MB reductions conflicts glue    remaining
c          level restarts redundant irredundant
c
c *  0.00  0 0 0 0  0 0   0   0 0% 0 856 260 100%
c {  0.00  0 0 0 0  0 0   0   0 0% 0 856 260 100%
c -  0.00  0 32 0 1 37 4 300 236 77% 4 856 260 100%
c d  0.01  0 27 0 1 185 7 863 746 69% 5 844 254 97%
c t  0.01  0 27 0 1 185 7 863 746 69% 5 842 254 97%
c u  0.01  0 27 0 1 185 7 909 737 69% 5 842 254 97%
c v  0.01  0 27 0 1 185 7 944 724 69% 5 842 254 97%
c }  0.01  0 27 1 1 207 7 1000 778 68% 5 842 254 97%
c [  0.01  0 0 1 1 207 0 1000 778 0% 0 842 254 97%
c O  0.01  0 29 1 1 207 10 1002 780 83% 7 842 254 97%
c -  0.01  0 22 1 2 207 1 1301 811 64% 11 842 254 97%
c t  0.01  0 19 1 2 207 1 1803 1213 61% 10 841 254 97%
c u  0.01  0 19 1 2 207 1 1836 1202 61% 10 841 254 97%
c v  0.01  0 19 1 2 207 1 1857 1195 61% 10 841 254 97%
c I  0.02  0 18 1 2 207 1 2003 1301 59% 10 841 254 97%
c ]  0.02  0 21 2 2 208 2 2201 1457 59% 9 841 254 97%
c {  0.02  0 27 2 2 208 7 2201 1457 68% 5 841 254 97%
c -  0.02  0 25 2 3 341 7 2715 1426 65% 5 841 254 97%
c }  0.02  0 25 3 3 349 7 2737 1447 65% 5 841 254 97%
c [  0.02  0 21 3 3 349 2 2737 1447 59% 9 841 254 97%
c
c  seconds  switched  rate         trail   variables
c         MB reductions conflicts     glue     remaining
c          level restarts   redundant irredundant
c
c t  0.03  0 19 3 3 349 1 3642 2122 59% 9 838 254 97%
c u  0.03  0 19 3 3 349 1 3685 2112 59% 9 838 254 97%
c v  0.03  0 19 3 3 349 1 3737 2094 59% 9 838 254 97%
c B  0.04  0 20 3 3 350 1 4263 2488 56% 9 838 254 97%
c e  0.04  0 20 3 3 350 1 4317 2527 56% 9 685 163 62%
c e  0.04  0 20 3 3 350 1 4317 2527 56% 9 682 162 62%
c -  0.04  0 21 3 4 350 1 4447 221 56% 9 682 162 62%
c -  0.06  0 21 3 5 351 1 6447 839 57% 10 682 162 62%
c u  0.06  0 21 3 5 351 1 6608 838 57% 10 682 162 62%
c v  0.06  0 21 3 5 351 1 6670 814 57% 10 682 162 62%
c ]  0.07  0 21 4 5 352 1 7914 1598 56% 10 682 162 62%
c {  0.07  0 25 4 5 352 7 7914 1598 65% 5 682 162 62%
c ^  0.07  0 25 4 5 459 7 8351 1976 65% 6 682 162 62%
c -  0.08  0 24 4 6 559 7 8683 1426 65% 6 682 162 62%
c }  0.09  0 23 5 6 894 7 10098 2673 65% 6 682 162 62%
c [  0.09  0 21 5 6 894 1 10098 2673 56% 10 682 162 62%
c W  0.09  0 21 5 6 894 1 10098 2673 56% 10 682 162 62%
c u  0.09  0 21 5 6 894 1 10392 2760 56% 11 682 162 62%
c v  0.09  0 21 5 6 894 1 10498 2691 56% 11 682 162 62%
c -  0.10  0 20 5 7 894 1 11133 2115 56% 11 682 162 62%
c
c  seconds  switched  rate          trail    variables
c         MB reductions conflicts       glue     remaining
c          level restarts    redundant  irredundant
c
c -  0.12  0 19 5 8 896 1 13778 2323 55% 11 682 162 62%
c 3  0.13  0 19 5 8 897 1 15122 3276 54% 11 682 162 62%
c u  0.13  0 19 5 8 897 1 15205 3237 54% 11 682 162 62%
c v  0.13  0 19 5 8 897 1 15300 3191 54% 11 682 162 62%
c O  0.14  0 19 5 8 897 1 15628 3441 54% 11 682 162 62%
c -  0.15  0 18 5 9 898 1 16607 2489 54% 11 682 162 62%
c e  0.15  0 18 5 9 899 1 17095 2768 54% 11 680 159 61%
c e  0.15  0 18 5 9 899 1 17095 2768 54% 11 679 158 61%
c ]  0.17  0 17 6 9 899 1 18924 3873 53% 10 679 158 61%
c {  0.17  0 23 6 9 899 7 18924 3873 65% 6 679 158 61%
c -  0.18  0 22 6 10 1066 7 19607 3224 64% 6 679 158 61%
c u  0.19  0 21 6 10 1313 6 21141 4351 64% 7 679 158 61%
c v  0.19  0 21 6 10 1313 6 21256 4285 64% 7 679 158 61%
c w  0.19  0 21 6 10 1313 6 21271 4285 64% 7 679 158 61%
c -  0.21  0 21 6 11 1500 6 22770 4238 63% 7 679 158 61%
c }  0.22  0 20 7 11 1540 6 23056 4470 63% 7 679 158 61%
c [  0.22  0 17 7 11 1540 1 23056 4470 53% 10 679 158 61%
c B  0.22  0 17 7 11 1540 1 23158 4563 53% 10 679 158 61%
c -  0.25  0 17 7 12 1542 1 26087 4246 52% 10 679 158 61%
c u  0.27  0 17 7 12 1543 1 28146 5439 51% 10 679 158 61%
c
c  seconds  switched    rate          trail    variables
c         MB  reductions  conflicts       glue     remaining
c          level   restarts    redundant  irredundant
c
c v  0.27  0 17 7 12 1543 1 28248 5413 51% 10 679 158 61%
c -  0.28  0 17 7 13 1544 1 29552 3819 51% 10 679 158 61%
c ^  0.30  0 17 7 13 1545 1 31159 4800 50% 10 679 158 61%
c W  0.31  0 16 7 13 1546 1 32920 5955 50% 10 679 158 61%
c -  0.32  0 16 7 14 1546 1 33157 4142 50% 10 679 158 61%
c ]  0.33  0 16 8 14 1546 1 35232 5483 49% 10 679 158 61%
c {  0.33  0 20 8 14 1546 6 35232 5483 63% 7 679 158 61%
c u  0.35  0 20 8 14 1738 5 36278 6205 62% 7 679 158 61%
c v  0.35  0 20 8 14 1738 5 36341 6186 62% 7 679 158 61%
c -  0.36  0 20 8 15 1882 5 36901 4845 61% 7 679 158 61%
c -  0.41  0 18 8 16 2231 4 40778 6026 57% 7 679 158 61%
c }  0.42  0 17 9 16 2313 4 42200 7096 56% 7 679 158 61%
c [  0.42  0 16 9 16 2313 1 42200 7096 49% 10 679 158 61%
c -  0.45  0 16 9 17 2315 1 44778 6856 49% 10 679 158 61%
c I  0.46  0 16 9 17 2315 1 45142 7100 49% 10 679 158 61%
c u  0.47  0 16 9 17 2315 1 45546 7271 49% 10 679 158 61%
c v  0.47  0 16 9 17 2315 1 45625 7239 49% 10 679 158 61%
c -  0.51  0 15 9 18 2318 1 48903 6433 48% 10 679 158 61%
c e  0.53  0 15 9 18 2319 1 51144 7666 48% 10 681 154 59%
c e  0.53  0 15 9 18 2319 1 51144 7666 48% 10 683 152 58%
c
c  seconds  switched    rate          trail    variables
c         MB  reductions  conflicts       glue     remaining
c          level   restarts    redundant  irredundant
c
c -  0.55  0 15 9 19 2319 1 53145 5032 47% 10 683 152 58%
c u  0.58  0 14 9 19 2320 1 56019 6086 47% 9 683 152 58%
c v  0.59  0 14 9 19 2320 1 56074 6060 47% 9 683 152 58%
c w  0.59  0 14 9 19 2320 1 56094 6060 47% 9 682 152 58%
c ]  0.59  0 14 10 19 2321 1 56438 6290 47% 9 682 152 58%
c {  0.59  0 17 10 19 2321 4 56438 6290 56% 7 682 152 58%
c -  0.60  0 17 10 20 2338 4 57503 5529 55% 7 682 152 58%
c -  0.65  0 15 10 21 2658 3 61975 7123 53% 7 682 152 58%
c -  0.71  0 15 10 22 2854 3 66558 8336 51% 7 682 152 58%
c 3  0.72  0 14 10 22 2930 3 67638 9086 51% 7 682 152 58%
c u  0.73  0 14 10 22 2930 3 67788 9038 51% 7 682 152 58%
c v  0.73  0 14 10 22 2930 3 67835 9024 51% 7 682 152 58%
c w  0.73  0 14 10 22 2930 3 67852 9024 51% 7 682 152 58%
c }  0.74  0 14 11 22 2931 3 68478 9443 50% 7 682 152 58%
c [  0.74  0 14 11 22 2931 1 68478 9443 47% 9 682 152 58%
c B  0.74  0 14 11 22 2931 1 68478 9443 47% 9 682 152 58%
c -  0.77  0 14 11 23 2933 1 71249 8576 47% 9 682 152 58%
c -  0.83  0 13 11 24 2936 1 76045 8549 46% 9 682 152 58%
c i  0.83  0 13 11 24 2936 1 76483 8718 46% 9 682 151 58%
c s  0.84  0 13 11 24 2937 1 77648 9388 46% 9 660 151 58%
c
c  seconds   switched    rate          trail   variables
c         MB   reductions  conflicts      glue     remaining
c          level    restarts    redundant irredundant
c
c ^  0.84  0 13 11 24 2937 1 77648 9388 46% 9 660 151 58%
c 3  0.88  0 13 11 24 2937 1 80644 9180 45% 9 660 151 58%
c u  0.89  0 13 11 24 2937 1 81248 8421 45% 9 660 151 58%
c v  0.89  0 13 11 24 2937 1 81324 8348 45% 9 660 151 58%
c -  0.90  0 13 11 25 2937 1 81350 6538 45% 9 660 151 58%
c i  0.91  0 13 11 25 2938 1 82488 7053 45% 9 660 146 56%
c i  0.92  0 13 11 25 2940 1 84384 8122 45% 9 660 141 54%
c i  0.93  0 13 11 25 2940 1 84915 8385 45% 9 660 136 52%
c i  0.93  0 13 11 25 2940 1 84995 8400 45% 9 660 131 50%
c i  0.93  0 13 11 25 2940 1 84996 8400 45% 9 660 130 50%
c i  0.93  0 13 11 25 2940 1 85009 8407 45% 9 660 123 47%
c i  0.93  0 13 11 25 2940 1 85010 8407 45% 9 660 114 44%
c ]  0.93  0 13 11 25 2940 1 85012 8407 45% 9 660 82 31%
c 0  0.93  0 14 11 25 2940 3 85012 8407 50% 7 660 82 31%
c
c ---- [ result ] ------------------------------------------------------------
c
s UNSATISFIABLE
c
c ---- [ profiling ] ---------------------------------------------------------
c
c           0.83   89.65 %  search
c           0.54   57.56 %  stable
c           0.30   32.09 %  focused
c           0.10   10.29 %  simplify
c           0.08    8.72 %  probe
c           0.06    6.80 %  reduce
c           0.05    5.72 %  vivify
c           0.02    1.75 %  sweep
c           0.01    1.33 %  eliminate
c           0.01    0.90 %  substitute
c           0.00    0.21 %  autarky
c           0.00    0.14 %  failed
c           0.00    0.10 %  transitive
c           0.00    0.08 %  ternary
c           0.00    0.05 %  parse
c           0.00    0.03 %  backbone
c           0.00    0.03 %  subsume
c           0.00    0.02 %  walking
c =============================================
c           0.93  100.00 %  total
c
c ---- [ statistics ] --------------------------------------------------------
c
c clauses_learned:                      79197               93 %  conflicts
c conflicts:                            85012            91252.29 per second
c decisions:                           146507                1.72 per conflict
c forward_strengthened:                    73                7 %  strengthened
c forward_subsumed:                        51                0 %  subsumed
c kitten_conflicts:                      1938                0.24 per solved
c kitten_decisions:                    151083               18.44 per solved
c kitten_propagations:                 251441               30.68 per solved
c kitten_sat:                            7073               86 %  solved
c kitten_solved:                         8195 
c kitten_ticks:                        683481                2.72 per propagation
c kitten_unknown:                          17                0 %  solved
c kitten_unsat:                          1105               13 %  solved
c literals_bumped:                    2609069               32.94 per clause
c literals_deduced:                   1240307               15.66 per clause
c literals_learned:                    919049               11.60 per clause
c literals_minimized:                       0                0 %  deduced
c literals_minimize_shrunken:           68838               21 %  shrunken
c literals_shrunken:                   321267               26 %  deduced
c propagations:                       1918758          2059604    per second
c reductions:                              25             3400    interval
c rephased:                                 9             9446    interval
c restarts:                              2940               28.92 interval
c restarts_reused_trails:                 989               34 %  restarts
c strengthened:                          1018                6 %  checks
c substituted:                              6                2 %  variables
c subsumption_checks:                   18365 
c subsumed:                             25449              139 %  checks
c sweep:                                   13             6539    interval
c sweep_completed:                          4                3    sweeps
c sweep_equivalences:                       0                0    variables
c sweep_sat:                             7033               99 %  sweep_solved
c sweep_solved:                          7129               87 %  kitten_solved
c sweep_units:                              0                0 %  variables
c sweep_unsat:                             79                1 %  sweep_solved
c sweep_variables:                        485              186 %  variables
c walks:                                    2            42506    interval
c
c ---- [ proof ] -------------------------------------------------------------
c
c proof_added:                          83774               53 %  per line
c proof_bytes:                        3755101                4 MB 
c proof_deleted:                        75492               47 %  per line
c
c ---- [ resources ] ---------------------------------------------------------
c
c maximum-resident-set-size:       4966055936 bytes       4736 MB
c process-time:                             1s               0.93 seconds
c
c ---- [ shutting down ] -----------------------------------------------------
c
c exit 20
-rw-r--r--  1 bryant  staff  3755101 Mar 10 13:44 chess-012.drat
c turning on binary mode checking
c parsing input formula with 260 variables and 856 clauses
c finished parsing, read 3755101 bytes from proof file
c detected empty clause; start verification via backward checking
c 691 of 856 clauses in core                            
c 54997 of 83775 lemmas in core using 920958 resolution steps
c 0 RAT lemmas in core; 8378 redundant literals in core lemmas
s VERIFIED
c verification time: 0.654 seconds
